DIMENSION: 8
EDGE_WEIGHT_TYPE: EXPLICIT
EDGE_WEIGHT_FORMAT: FULL_MATRIX
EDGE_WEIGHT_SECTION:
32767 32767 32767 32767 32767 32767 32767 32767 
32767 32767 33 40 32767 32767 32767 32767 
32767 33 32767 32767 68 32767 36 32767 
32767 40 32767 32767 32767 32767 28 32767 
32767 32767 68 32767 32767 32767 32767 32767 
32767 32767 32767 32767 32767 32767 32767 38 
32767 32767 36 28 32767 32767 32767 1 
32767 32767 32767 32767 32767 38 1 32767 
EOF